words_hard_train/9713.qaiger
aag 190 24 0 1 166
2
4
8
12
16
20
24
28
40
48
52
66
80
94
156
170
204
218
252
266
300
314
338
340
380
6 3 5
10 6 9
14 10 13
18 14 17
22 18 21
26 22 25
30 26 28
32 7 29
34 33 9
36 32 8
38 35 37
42 41 3
44 40 2
46 43 45
50 46 48
54 53 5
56 52 4
58 55 57
60 45 59
62 44 58
64 61 63
68 65 67
70 64 66
72 69 71
74 50 72
76 75 71
78 63 57
82 81 9
84 80 8
86 83 85
88 78 87
90 79 86
92 89 91
96 93 95
98 92 94
100 97 99
102 76 101
104 77 100
106 103 105
108 38 106
110 51 73
112 111 75
114 2 28
116 114 5
118 115 4
120 117 119
122 113 121
124 123 7
126 39 107
128 124 127
130 47 49
132 131 51
134 133 2
136 112 120
138 134 137
140 128 139
142 109 141
144 11 29
146 145 12
148 144 13
150 147 149
152 105 99
154 91 85
158 157 13
160 156 12
162 159 161
164 154 163
166 155 162
168 165 167
172 169 171
174 168 170
176 173 175
178 152 177
180 153 176
182 179 181
184 151 182
186 142 185
188 150 183
190 187 189
192 15 29
194 193 16
196 192 17
198 195 197
200 181 175
202 167 161
206 205 17
208 204 16
210 207 209
212 202 211
214 203 210
216 213 215
220 217 219
222 216 218
224 221 223
226 200 225
228 201 224
230 227 229
232 199 230
234 191 233
236 198 231
238 235 237
240 19 29
242 241 21
244 240 20
246 243 245
248 229 223
250 215 209
254 253 21
256 252 20
258 255 257
260 250 259
262 251 258
264 261 263
268 265 267
270 264 266
272 269 271
274 248 273
276 249 272
278 275 277
280 246 278
282 239 281
284 247 279
286 283 285
288 23 29
290 289 25
292 288 24
294 291 293
296 277 271
298 263 257
302 301 25
304 300 24
306 303 305
308 298 307
310 299 306
312 309 311
316 313 315
318 312 314
320 317 319
322 296 321
324 297 320
326 323 325
328 294 326
330 287 329
332 295 327
334 331 333
336 31 334
342 339 340
344 338 341
346 343 345
348 346 29
350 347 28
352 349 351
354 311 305
356 352 355
358 353 354
360 357 359
362 325 319
364 361 362
366 360 363
368 365 367
370 368 29
372 369 334
374 371 373
376 337 375
378 373 27
380 377 379
i0 2 y1[0]
i1 2 y1[1]
i2 2 y1[2]
i3 2 y1[3]
i4 2 y1[4]
i5 2 y1[5]
i6 2 y1[6]
i7 2 y1[7]
i8 2 y2[0]
i9 1 x2[0]
i10 2 y2[1]
i11 1 x2[1]
i12 2 y2[2]
i13 1 x2[2]
i14 2 y2[3]
i15 1 x2[3]
i16 2 y2[4]
i17 1 x2[4]
i18 2 y2[5]
i19 1 x2[5]
i20 2 y2[6]
i21 1 x2[6]
i22 1 x2[7]
i23 2 y2[7]
o0 bv[0]
c
simplified
  >=
    add
      1 x2
      add
        2 y2
        2 y1
    abs
      2 y1
