words_hard_train/9713.qaiger.qdimacs
p cnf 190 499
a 33 133 169 109 47 85 24 157 0
e 1 2 3 4 5 6 7 8 9 10 11 12 13 14 15 16 17 18 19 20 21 22 23 25 26 27 28 29 30 31 32 34 35 36 37 38 39 40 41 42 43 44 45 46 48 49 50 51 52 53 54 55 56 57 58 59 60 61 62 63 64 65 66 67 68 69 70 71 72 73 74 75 76 77 78 79 80 81 82 83 84 86 87 88 89 90 91 92 93 94 95 96 97 98 99 100 101 102 103 104 105 106 107 108 110 111 112 113 114 115 116 117 118 119 120 121 122 123 124 125 126 127 128 129 130 131 132 134 135 136 137 138 139 140 141 142 143 144 145 146 147 148 149 150 151 152 153 154 155 156 158 159 160 161 162 163 164 165 166 167 168 170 171 172 173 174 175 176 177 178 179 180 181 182 183 184 185 186 187 188 189 190 0
1 2 3 0
-1 -3 0
-2 -3 0
-3 4 5 0
3 -5 0
-4 -5 0
-5 6 7 0
5 -7 0
-6 -7 0
-7 8 9 0
7 -9 0
-8 -9 0
-9 10 11 0
9 -11 0
-10 -11 0
-11 12 13 0
11 -13 0
-12 -13 0
-13 -14 15 0
13 -15 0
14 -15 0
3 14 16 0
-3 -16 0
-14 -16 0
16 4 17 0
-16 -17 0
-4 -17 0
-16 -4 18 0
16 -18 0
4 -18 0
17 18 19 0
-17 -19 0
-18 -19 0
20 1 21 0
-20 -21 0
-1 -21 0
-20 -1 22 0
20 -22 0
1 -22 0
21 22 23 0
-21 -23 0
-22 -23 0
-23 -24 25 0
23 -25 0
24 -25 0
26 2 27 0
-26 -27 0
-2 -27 0
-26 -2 28 0
26 -28 0
2 -28 0
27 28 29 0
-27 -29 0
-28 -29 0
22 29 30 0
-22 -30 0
-29 -30 0
-22 -29 31 0
22 -31 0
29 -31 0
30 31 32 0
-30 -32 0
-31 -32 0
32 33 34 0
-32 -34 0
-33 -34 0
-32 -33 35 0
32 -35 0
33 -35 0
34 35 36 0
-34 -36 0
-35 -36 0
-25 -36 37 0
25 -37 0
36 -37 0
37 35 38 0
-37 -38 0
-35 -38 0
31 28 39 0
-31 -39 0
-28 -39 0
40 4 41 0
-40 -41 0
-4 -41 0
-40 -4 42 0
40 -42 0
4 -42 0
41 42 43 0
-41 -43 0
-42 -43 0
-39 43 44 0
39 -44 0
-43 -44 0
39 -43 45 0
-39 -45 0
43 -45 0
44 45 46 0
-44 -46 0
-45 -46 0
46 47 48 0
-46 -48 0
-47 -48 0
-46 -47 49 0
46 -49 0
47 -49 0
48 49 50 0
-48 -50 0
-49 -50 0
-38 50 51 0
38 -51 0
-50 -51 0
38 -50 52 0
-38 -52 0
50 -52 0
51 52 53 0
-51 -53 0
-52 -53 0
-19 -53 54 0
19 -54 0
53 -54 0
25 36 55 0
-25 -55 0
-36 -55 0
55 37 56 0
-55 -56 0
-37 -56 0
-1 -14 57 0
1 -57 0
14 -57 0
-57 2 58 0
57 -58 0
-2 -58 0
57 -2 59 0
-57 -59 0
2 -59 0
58 59 60 0
-58 -60 0
-59 -60 0
56 60 61 0
-56 -61 0
-60 -61 0
61 3 62 0
-61 -62 0
-3 -62 0
19 53 63 0
-19 -63 0
-53 -63 0
-62 63 64 0
62 -64 0
-63 -64 0
23 24 65 0
-23 -65 0
-24 -65 0
65 25 66 0
-65 -66 0
-25 -66 0
66 -1 67 0
-66 -67 0
1 -67 0
-56 -60 68 0
56 -68 0
60 -68 0
-67 68 69 0
67 -69 0
-68 -69 0
-64 69 70 0
64 -70 0
-69 -70 0
54 70 71 0
-54 -71 0
-70 -71 0
5 14 72 0
-5 -72 0
-14 -72 0
72 -6 73 0
-72 -73 0
6 -73 0
-72 6 74 0
72 -74 0
-6 -74 0
73 74 75 0
-73 -75 0
-74 -75 0
52 49 76 0
-52 -76 0
-49 -76 0
45 42 77 0
-45 -77 0
-42 -77 0
78 6 79 0
-78 -79 0
-6 -79 0
-78 -6 80 0
78 -80 0
6 -80 0
79 80 81 0
-79 -81 0
-80 -81 0
-77 81 82 0
77 -82 0
-81 -82 0
77 -81 83 0
-77 -83 0
81 -83 0
82 83 84 0
-82 -84 0
-83 -84 0
84 85 86 0
-84 -86 0
-85 -86 0
-84 -85 87 0
84 -87 0
85 -87 0
86 87 88 0
-86 -88 0
-87 -88 0
-76 88 89 0
76 -89 0
-88 -89 0
76 -88 90 0
-76 -90 0
88 -90 0
89 90 91 0
-89 -91 0
-90 -91 0
75 -91 92 0
-75 -92 0
91 -92 0
-71 92 93 0
71 -93 0
-92 -93 0
-75 91 94 0
75 -94 0
-91 -94 0
93 94 95 0
-93 -95 0
-94 -95 0
7 14 96 0
-7 -96 0
-14 -96 0
96 -8 97 0
-96 -97 0
8 -97 0
-96 8 98 0
96 -98 0
-8 -98 0
97 98 99 0
-97 -99 0
-98 -99 0
90 87 100 0
-90 -100 0
-87 -100 0
83 80 101 0
-83 -101 0
-80 -101 0
102 8 103 0
-102 -103 0
-8 -103 0
-102 -8 104 0
102 -104 0
8 -104 0
103 104 105 0
-103 -105 0
-104 -105 0
-101 105 106 0
101 -106 0
-105 -106 0
101 -105 107 0
-101 -107 0
105 -107 0
106 107 108 0
-106 -108 0
-107 -108 0
108 109 110 0
-108 -110 0
-109 -110 0
-108 -109 111 0
108 -111 0
109 -111 0
110 111 112 0
-110 -112 0
-111 -112 0
-100 112 113 0
100 -113 0
-112 -113 0
100 -112 114 0
-100 -114 0
112 -114 0
113 114 115 0
-113 -115 0
-114 -115 0
99 -115 116 0
-99 -116 0
115 -116 0
95 116 117 0
-95 -117 0
-116 -117 0
-99 115 118 0
99 -118 0
-115 -118 0
117 118 119 0
-117 -119 0
-118 -119 0
9 14 120 0
-9 -120 0
-14 -120 0
120 10 121 0
-120 -121 0
-10 -121 0
-120 -10 122 0
120 -122 0
10 -122 0
121 122 123 0
-121 -123 0
-122 -123 0
114 111 124 0
-114 -124 0
-111 -124 0
107 104 125 0
-107 -125 0
-104 -125 0
126 10 127 0
-126 -127 0
-10 -127 0
-126 -10 128 0
126 -128 0
10 -128 0
127 128 129 0
-127 -129 0
-128 -129 0
-125 129 130 0
125 -130 0
-129 -130 0
125 -129 131 0
-125 -131 0
129 -131 0
130 131 132 0
-130 -132 0
-131 -132 0
132 133 134 0
-132 -134 0
-133 -134 0
-132 -133 135 0
132 -135 0
133 -135 0
134 135 136 0
-134 -136 0
-135 -136 0
-124 136 137 0
124 -137 0
-136 -137 0
124 -136 138 0
-124 -138 0
136 -138 0
137 138 139 0
-137 -139 0
-138 -139 0
-123 -139 140 0
123 -140 0
139 -140 0
119 140 141 0
-119 -141 0
-140 -141 0
123 139 142 0
-123 -142 0
-139 -142 0
141 142 143 0
-141 -143 0
-142 -143 0
11 14 144 0
-11 -144 0
-14 -144 0
144 12 145 0
-144 -145 0
-12 -145 0
-144 -12 146 0
144 -146 0
12 -146 0
145 146 147 0
-145 -147 0
-146 -147 0
138 135 148 0
-138 -148 0
-135 -148 0
131 128 149 0
-131 -149 0
-128 -149 0
150 12 151 0
-150 -151 0
-12 -151 0
-150 -12 152 0
150 -152 0
12 -152 0
151 152 153 0
-151 -153 0
-152 -153 0
-149 153 154 0
149 -154 0
-153 -154 0
149 -153 155 0
-149 -155 0
153 -155 0
154 155 156 0
-154 -156 0
-155 -156 0
156 157 158 0
-156 -158 0
-157 -158 0
-156 -157 159 0
156 -159 0
157 -159 0
158 159 160 0
-158 -160 0
-159 -160 0
-148 160 161 0
148 -161 0
-160 -161 0
148 -160 162 0
-148 -162 0
160 -162 0
161 162 163 0
-161 -163 0
-162 -163 0
-147 -163 164 0
147 -164 0
163 -164 0
143 164 165 0
-143 -165 0
-164 -165 0
147 163 166 0
-147 -166 0
-163 -166 0
165 166 167 0
-165 -167 0
-166 -167 0
15 -167 168 0
-15 -168 0
167 -168 0
169 -170 171 0
-169 -171 0
170 -171 0
-169 170 172 0
169 -172 0
-170 -172 0
171 172 173 0
-171 -173 0
-172 -173 0
-173 14 174 0
173 -174 0
-14 -174 0
173 -14 175 0
-173 -175 0
14 -175 0
174 175 176 0
-174 -176 0
-175 -176 0
155 152 177 0
-155 -177 0
-152 -177 0
-176 177 178 0
176 -178 0
-177 -178 0
176 -177 179 0
-176 -179 0
177 -179 0
178 179 180 0
-178 -180 0
-179 -180 0
162 159 181 0
-162 -181 0
-159 -181 0
180 -181 182 0
-180 -182 0
181 -182 0
-180 181 183 0
180 -183 0
-181 -183 0
182 183 184 0
-182 -184 0
-183 -184 0
-184 14 185 0
184 -185 0
-14 -185 0
184 -167 186 0
-184 -186 0
167 -186 0
185 186 187 0
-185 -187 0
-186 -187 0
168 187 188 0
-168 -188 0
-187 -188 0
186 13 189 0
-186 -189 0
-13 -189 0
188 189 190 0
-188 -190 0
-189 -190 0
190 0
